p tw 16 401 2 
1 9 
1 11 
1 13 
1 15 
2 10 
2 12 
2 14 
2 16 
3 4 
3 9 
3 12 
3 13 
3 16 
4 10 
4 11 
4 14 
4 15 
5 6 
5 9 
5 11 
5 14 
5 16 
6 10 
6 12 
6 13 
6 15 
7 8 
7 9 
7 12 
7 14 
7 15 
8 10 
8 11 
8 13 
8 16 
9 10 
11 12 
13 14 
15 16 
